Instance: Data/Instances_txt/inst_60_10_2.txt
SetUpTime: 2.68656587600708

Gurobi 10.0.1 (mac64[x86]) logging started Di  1 Aug 16:29:25 2023

Set parameter LogFile to value "Output/MILP_inst_60_10_2_2023-08-01_16-28-50.txt"
Set parameter TimeLimit to value 2700

Gurobi 10.0.1 (mac64[x86]) logging started Di  1 Aug 16:29:25 2023

Set parameter LogFile to value "Output/MILP_inst_60_10_2_2023-08-01_16-28-50.txt"
Gurobi Optimizer version 10.0.1 build v10.0.1rc0 (mac64[x86])

CPU model: Intel(R) Core(TM) i5-1038NG7 CPU @ 2.00GHz
Thread count: 4 physical cores, 8 logical processors, using up to 8 threads

Optimize a model with 121 rows, 5927 columns and 23934 nonzeros
Model fingerprint: 0x26e2f2b4
Variable types: 0 continuous, 5927 integer (0 binary)
Coefficient statistics:
  Matrix range     [1e+00, 1e+00]
  Objective range  [8e+00, 6e+03]
  Bounds range     [1e+00, 1e+00]
  RHS range        [1e+00, 1e+00]
Presolve time: 0.03s
Presolved: 121 rows, 5927 columns, 23934 nonzeros
Variable types: 0 continuous, 5927 integer (5927 binary)

Root relaxation: objective 4.488062e+04, 1435 iterations, 0.09 seconds (0.10 work units)

    Nodes    |    Current Node    |     Objective Bounds      |     Work
 Expl Unexpl |  Obj  Depth IntInf | Incumbent    BestBd   Gap | It/Node Time

     0     0 44880.6190    0   31          - 44880.6190      -     -    0s
H    0     0                    59204.000000 44880.6190  24.2%     -    0s
H    0     0                    54266.000000 44880.6190  17.3%     -    0s
     0     0 45107.9375    0   74 54266.0000 45107.9375  16.9%     -    0s
H    0     0                    45661.000000 45107.9375  1.21%     -    0s
     0     0 45109.2500    0   47 45661.0000 45109.2500  1.21%     -    0s
     0     0 45109.7500    0   47 45661.0000 45109.7500  1.21%     -    0s
     0     0 45183.8333    0   39 45661.0000 45183.8333  1.05%     -    0s
     0     0 45183.8333    0   31 45661.0000 45183.8333  1.05%     -    0s
     0     0 45183.8333    0   49 45661.0000 45183.8333  1.05%     -    0s
     0     0 45183.8333    0   39 45661.0000 45183.8333  1.05%     -    0s
     0     0 45270.2500    0   29 45661.0000 45270.2500  0.86%     -    0s
     0     0 45270.5000    0   30 45661.0000 45270.5000  0.86%     -    0s
     0     0 45270.6667    0   68 45661.0000 45270.6667  0.85%     -    0s
     0     0 45270.6667    0   42 45661.0000 45270.6667  0.85%     -    0s
     0     0 45271.1250    0   71 45661.0000 45271.1250  0.85%     -    0s
     0     0 45271.1250    0   69 45661.0000 45271.1250  0.85%     -    0s
     0     0 45277.2500    0   31 45661.0000 45277.2500  0.84%     -    0s
H    0     0                    45655.000000 45277.2500  0.83%     -    0s
     0     0 45277.2500    0   55 45655.0000 45277.2500  0.83%     -    0s
H    0     0                    45341.000000 45277.2500  0.14%     -    0s
     0     0 45309.5833    0   77 45341.0000 45309.5833  0.07%     -    0s
     0     0 45310.2500    0   77 45341.0000 45310.2500  0.07%     -    0s
     0     0 45310.9000    0   81 45341.0000 45310.9000  0.07%     -    0s
     0     0 45311.5000    0   77 45341.0000 45311.5000  0.07%     -    0s
     0     0 45311.9000    0   71 45341.0000 45311.9000  0.06%     -    0s
     0     0 45313.8750    0   77 45341.0000 45313.8750  0.06%     -    0s
     0     0 45315.3333    0   56 45341.0000 45315.3333  0.06%     -    0s
     0     0 45317.2500    0   67 45341.0000 45317.2500  0.05%     -    0s
     0     0 45317.2500    0   14 45341.0000 45317.2500  0.05%     -    0s
H    0     0                    45337.000000 45317.2500  0.04%     -    0s
     0     0 45317.2500    0   27 45337.0000 45317.2500  0.04%     -    0s
H    0     0                    45329.000000 45317.2500  0.03%     -    0s
     0     0 45321.5000    0   53 45329.0000 45321.5000  0.02%     -    0s
*    0     0               0    45323.000000 45323.0000  0.00%     -    0s

Cutting planes:
  Gomory: 2
  Clique: 3
  Zero half: 6
  RLT: 3

Explored 1 nodes (4815 simplex iterations) in 0.94 seconds (0.63 work units)
Thread count was 8 (of 8 available processors)

Solution count 8: 45323 45329 45337 ... 59204

Optimal solution found (tolerance 1.00e-04)
Best objective 4.532300000000e+04, best bound 4.532300000000e+04, gap 0.0000%

User-callback calls 648, time in user-callback 0.00 sec

=========================

OUTPUT STATISTICS
Relaxed: false
Time since start: 3.7458250522613525
SetUpTime: 2.68656587600708
Objective value: 45323.0
Number of variables: 5927
Solving time: 1.0551300048828125
